1
1000
60
499 1
493 1
488 1
470 1
460 1
460 1
459 1
459 1
427 1
423 1
415 1
407 1
405 1
395 1
391 1
384 1
382 1
368 1
367 1
366 1
363 1
361 1
358 1
350 1
343 1
342 1
342 1
329 1
324 1
316 1
305 1
303 1
298 1
292 1
288 1
287 1
286 1
282 1
279 1
276 1
273 1
270 1
267 1
263 1
261 1
261 1
259 1
259 1
258 1
257 1
257 1
255 1
254 1
254 1
253 1
253 1
252 1
251 1
251 1
250 1
